c Sudoku solution
p cnf 729 0
143 0
218 0
252 0
275 0
284 0
319 0
325 0
331 0
347 0
388 0
432 0
466 0
364 0
356 0
485 0
562 0
599 0
611 0
667 0
682 0
721 0
796 0
823 0
233 0
226 0
297 0
868 0
158 0
165 0
936 0
846 0
516 0
413 0
676 0
186 0
179 0
191 0
974 0
989 0
998 0
895 0
738 0
839 0
392 0
373 0
783 0
769 0
963 0
261 0
249 0
693 0
494 0
553 0
112 0
872 0
881 0
777 0
742 0
922 0
427 0
629 0
528 0
459 0
478 0
441 0
648 0
124 0
137 0
945 0
951 0
754 0
857 0
715 0
814 0
917 0
544 0
655 0
535 0
634 0
571 0
587 0
